Na Cl 
 1.0000000000000000
     5.6916940000000000    0.0000000000000000    0.0000000000000000
     0.0000000000000000    5.6916940000000000    0.0000000000000000
     0.0000000000000000    0.0000000000000000    5.6916940000000000
 Na  Cl 
   4   4
Cartesian
  0.0000000000000000  0.0000000000000000  0.0000000000000000
  0.0000000000000000  2.8458470000000000  2.8458470000000000
  2.8458470000000000  0.0000000000000000  2.8458470000000000
  2.8458470000000000  2.8458470000000000  0.0000000000000000
  2.8458470000000000  0.0000000000000000  0.0000000000000000
  2.8458470000000000  2.8458470000000000  2.8458470000000000
  0.0000000000000000  0.0000000000000000  2.8458470000000000
  0.0000000000000000  2.8458470000000000  0.0000000000000000
