rutile TiO2  # input
  4.58700000000000
     1.0017204622313720   -0.0000000000000000    0.0000000000000000
     -0.0000000000000000    1.0017204622313720    0.0000000000000000
     0.0000000000000000    0.0000000000000000    0.6447846964093671
   Ti   O 
   2    4
Direct
  0.5000000000000000  0.5000000000000000  0.5000000000000000
  0.0000000000000000 -0.0000000000000000 -0.0000000000000000
  0.1954396576255816  0.8045603423744183  0.5000000000000000
  0.8045603423744183  0.1954396576255816  0.5000000000000000
  0.3045603423744184  0.3045603423744184  0.0000000000000000
  0.6954396576255817  0.6954396576255817 -0.0000000000000000